% Auto-generated by scripts/generate_dzn.py
% problem_type   = polyominoes
% instance       = polyominoes_42
% source_json    = instances_json/0_low_blowup/polyominoes_42.json
% blowup         = 0.6730401529636711
% representation = NFA

mode = 1;

size = 6;
tiles = 4;
n_expressions = 4;
Q = 195;
S = 5;
q0 = [1, 1, 1, 1];
F = [{24}, {31}, {31}, {2}];
weights = [2, 8, 1, 6, 4, 9, 7, 7, 4, 6, 1, 7, 6, 8, 5, 5, 9, 6, 4, 5, 7, 10, 6, 10, 6, 8, 10, 10, 10, 8, 8, 1, 1, 5, 10, 1];
d_dfa = array3d(1..4, 1..195, 1..5, [
  % k = 1
    0, 0, 0, 0, 0,
    0, 0, 0, 0, 0,
    0, 0, 0, 0, 0,
    0, 0, 0, 0, 0,
    0, 0, 0, 0, 0,
    0, 0, 0, 0, 0,
    0, 0, 0, 0, 0,
    0, 0, 0, 0, 0,
    0, 0, 0, 0, 0,
    0, 0, 0, 0, 0,
    0, 0, 0, 0, 0,
    0, 0, 0, 0, 0,
    0, 0, 0, 0, 0,
    0, 0, 0, 0, 0,
    0, 0, 0, 0, 0,
    0, 0, 0, 0, 0,
    0, 0, 0, 0, 0,
    0, 0, 0, 0, 0,
    0, 0, 0, 0, 0,
    0, 0, 0, 0, 0,
    0, 0, 0, 0, 0,
    0, 0, 0, 0, 0,
    0, 0, 0, 0, 0,
    0, 0, 0, 0, 0,
    0, 0, 0, 0, 0,
    0, 0, 0, 0, 0,
    0, 0, 0, 0, 0,
    0, 0, 0, 0, 0,
    0, 0, 0, 0, 0,
    0, 0, 0, 0, 0,
    0, 0, 0, 0, 0,
    0, 0, 0, 0, 0,
    0, 0, 0, 0, 0,
    0, 0, 0, 0, 0,
    0, 0, 0, 0, 0,
    0, 0, 0, 0, 0,
    0, 0, 0, 0, 0,
    0, 0, 0, 0, 0,
    0, 0, 0, 0, 0,
    0, 0, 0, 0, 0,
    0, 0, 0, 0, 0,
    0, 0, 0, 0, 0,
    0, 0, 0, 0, 0,
    0, 0, 0, 0, 0,
    0, 0, 0, 0, 0,
    0, 0, 0, 0, 0,
    0, 0, 0, 0, 0,
    0, 0, 0, 0, 0,
    0, 0, 0, 0, 0,
    0, 0, 0, 0, 0,
    0, 0, 0, 0, 0,
    0, 0, 0, 0, 0,
    0, 0, 0, 0, 0,
    0, 0, 0, 0, 0,
    0, 0, 0, 0, 0,
    0, 0, 0, 0, 0,
    0, 0, 0, 0, 0,
    0, 0, 0, 0, 0,
    0, 0, 0, 0, 0,
    0, 0, 0, 0, 0,
    0, 0, 0, 0, 0,
    0, 0, 0, 0, 0,
    0, 0, 0, 0, 0,
    0, 0, 0, 0, 0,
    0, 0, 0, 0, 0,
    0, 0, 0, 0, 0,
    0, 0, 0, 0, 0,
    0, 0, 0, 0, 0,
    0, 0, 0, 0, 0,
    0, 0, 0, 0, 0,
    0, 0, 0, 0, 0,
    0, 0, 0, 0, 0,
    0, 0, 0, 0, 0,
    0, 0, 0, 0, 0,
    0, 0, 0, 0, 0,
    0, 0, 0, 0, 0,
    0, 0, 0, 0, 0,
    0, 0, 0, 0, 0,
    0, 0, 0, 0, 0,
    0, 0, 0, 0, 0,
    0, 0, 0, 0, 0,
    0, 0, 0, 0, 0,
    0, 0, 0, 0, 0,
    0, 0, 0, 0, 0,
    0, 0, 0, 0, 0,
    0, 0, 0, 0, 0,
    0, 0, 0, 0, 0,
    0, 0, 0, 0, 0,
    0, 0, 0, 0, 0,
    0, 0, 0, 0, 0,
    0, 0, 0, 0, 0,
    0, 0, 0, 0, 0,
    0, 0, 0, 0, 0,
    0, 0, 0, 0, 0,
    0, 0, 0, 0, 0,
    0, 0, 0, 0, 0,
    0, 0, 0, 0, 0,
    0, 0, 0, 0, 0,
    0, 0, 0, 0, 0,
    0, 0, 0, 0, 0,
    0, 0, 0, 0, 0,
    0, 0, 0, 0, 0,
    0, 0, 0, 0, 0,
    0, 0, 0, 0, 0,
    0, 0, 0, 0, 0,
    0, 0, 0, 0, 0,
    0, 0, 0, 0, 0,
    0, 0, 0, 0, 0,
    0, 0, 0, 0, 0,
    0, 0, 0, 0, 0,
    0, 0, 0, 0, 0,
    0, 0, 0, 0, 0,
    0, 0, 0, 0, 0,
    0, 0, 0, 0, 0,
    0, 0, 0, 0, 0,
    0, 0, 0, 0, 0,
    0, 0, 0, 0, 0,
    0, 0, 0, 0, 0,
    0, 0, 0, 0, 0,
    0, 0, 0, 0, 0,
    0, 0, 0, 0, 0,
    0, 0, 0, 0, 0,
    0, 0, 0, 0, 0,
    0, 0, 0, 0, 0,
    0, 0, 0, 0, 0,
    0, 0, 0, 0, 0,
    0, 0, 0, 0, 0,
    0, 0, 0, 0, 0,
    0, 0, 0, 0, 0,
    0, 0, 0, 0, 0,
    0, 0, 0, 0, 0,
    0, 0, 0, 0, 0,
    0, 0, 0, 0, 0,
    0, 0, 0, 0, 0,
    0, 0, 0, 0, 0,
    0, 0, 0, 0, 0,
    0, 0, 0, 0, 0,
    0, 0, 0, 0, 0,
    0, 0, 0, 0, 0,
    0, 0, 0, 0, 0,
    0, 0, 0, 0, 0,
    0, 0, 0, 0, 0,
    0, 0, 0, 0, 0,
    0, 0, 0, 0, 0,
    0, 0, 0, 0, 0,
    0, 0, 0, 0, 0,
    0, 0, 0, 0, 0,
    0, 0, 0, 0, 0,
    0, 0, 0, 0, 0,
    0, 0, 0, 0, 0,
    0, 0, 0, 0, 0,
    0, 0, 0, 0, 0,
    0, 0, 0, 0, 0,
    0, 0, 0, 0, 0,
    0, 0, 0, 0, 0,
    0, 0, 0, 0, 0,
    0, 0, 0, 0, 0,
    0, 0, 0, 0, 0,
    0, 0, 0, 0, 0,
    0, 0, 0, 0, 0,
    0, 0, 0, 0, 0,
    0, 0, 0, 0, 0,
    0, 0, 0, 0, 0,
    0, 0, 0, 0, 0,
    0, 0, 0, 0, 0,
    0, 0, 0, 0, 0,
    0, 0, 0, 0, 0,
    0, 0, 0, 0, 0,
    0, 0, 0, 0, 0,
    0, 0, 0, 0, 0,
    0, 0, 0, 0, 0,
    0, 0, 0, 0, 0,
    0, 0, 0, 0, 0,
    0, 0, 0, 0, 0,
    0, 0, 0, 0, 0,
    0, 0, 0, 0, 0,
    0, 0, 0, 0, 0,
    0, 0, 0, 0, 0,
    0, 0, 0, 0, 0,
    0, 0, 0, 0, 0,
    0, 0, 0, 0, 0,
    0, 0, 0, 0, 0,
    0, 0, 0, 0, 0,
    0, 0, 0, 0, 0,
    0, 0, 0, 0, 0,
    0, 0, 0, 0, 0,
    0, 0, 0, 0, 0,
    0, 0, 0, 0, 0,
    0, 0, 0, 0, 0,
    0, 0, 0, 0, 0,
    0, 0, 0, 0, 0,
    0, 0, 0, 0, 0,
    0, 0, 0, 0, 0,
    0, 0, 0, 0, 0,
    0, 0, 0, 0, 0,

  % k = 2
    0, 0, 0, 0, 0,
    0, 0, 0, 0, 0,
    0, 0, 0, 0, 0,
    0, 0, 0, 0, 0,
    0, 0, 0, 0, 0,
    0, 0, 0, 0, 0,
    0, 0, 0, 0, 0,
    0, 0, 0, 0, 0,
    0, 0, 0, 0, 0,
    0, 0, 0, 0, 0,
    0, 0, 0, 0, 0,
    0, 0, 0, 0, 0,
    0, 0, 0, 0, 0,
    0, 0, 0, 0, 0,
    0, 0, 0, 0, 0,
    0, 0, 0, 0, 0,
    0, 0, 0, 0, 0,
    0, 0, 0, 0, 0,
    0, 0, 0, 0, 0,
    0, 0, 0, 0, 0,
    0, 0, 0, 0, 0,
    0, 0, 0, 0, 0,
    0, 0, 0, 0, 0,
    0, 0, 0, 0, 0,
    0, 0, 0, 0, 0,
    0, 0, 0, 0, 0,
    0, 0, 0, 0, 0,
    0, 0, 0, 0, 0,
    0, 0, 0, 0, 0,
    0, 0, 0, 0, 0,
    0, 0, 0, 0, 0,
    0, 0, 0, 0, 0,
    0, 0, 0, 0, 0,
    0, 0, 0, 0, 0,
    0, 0, 0, 0, 0,
    0, 0, 0, 0, 0,
    0, 0, 0, 0, 0,
    0, 0, 0, 0, 0,
    0, 0, 0, 0, 0,
    0, 0, 0, 0, 0,
    0, 0, 0, 0, 0,
    0, 0, 0, 0, 0,
    0, 0, 0, 0, 0,
    0, 0, 0, 0, 0,
    0, 0, 0, 0, 0,
    0, 0, 0, 0, 0,
    0, 0, 0, 0, 0,
    0, 0, 0, 0, 0,
    0, 0, 0, 0, 0,
    0, 0, 0, 0, 0,
    0, 0, 0, 0, 0,
    0, 0, 0, 0, 0,
    0, 0, 0, 0, 0,
    0, 0, 0, 0, 0,
    0, 0, 0, 0, 0,
    0, 0, 0, 0, 0,
    0, 0, 0, 0, 0,
    0, 0, 0, 0, 0,
    0, 0, 0, 0, 0,
    0, 0, 0, 0, 0,
    0, 0, 0, 0, 0,
    0, 0, 0, 0, 0,
    0, 0, 0, 0, 0,
    0, 0, 0, 0, 0,
    0, 0, 0, 0, 0,
    0, 0, 0, 0, 0,
    0, 0, 0, 0, 0,
    0, 0, 0, 0, 0,
    0, 0, 0, 0, 0,
    0, 0, 0, 0, 0,
    0, 0, 0, 0, 0,
    0, 0, 0, 0, 0,
    0, 0, 0, 0, 0,
    0, 0, 0, 0, 0,
    0, 0, 0, 0, 0,
    0, 0, 0, 0, 0,
    0, 0, 0, 0, 0,
    0, 0, 0, 0, 0,
    0, 0, 0, 0, 0,
    0, 0, 0, 0, 0,
    0, 0, 0, 0, 0,
    0, 0, 0, 0, 0,
    0, 0, 0, 0, 0,
    0, 0, 0, 0, 0,
    0, 0, 0, 0, 0,
    0, 0, 0, 0, 0,
    0, 0, 0, 0, 0,
    0, 0, 0, 0, 0,
    0, 0, 0, 0, 0,
    0, 0, 0, 0, 0,
    0, 0, 0, 0, 0,
    0, 0, 0, 0, 0,
    0, 0, 0, 0, 0,
    0, 0, 0, 0, 0,
    0, 0, 0, 0, 0,
    0, 0, 0, 0, 0,
    0, 0, 0, 0, 0,
    0, 0, 0, 0, 0,
    0, 0, 0, 0, 0,
    0, 0, 0, 0, 0,
    0, 0, 0, 0, 0,
    0, 0, 0, 0, 0,
    0, 0, 0, 0, 0,
    0, 0, 0, 0, 0,
    0, 0, 0, 0, 0,
    0, 0, 0, 0, 0,
    0, 0, 0, 0, 0,
    0, 0, 0, 0, 0,
    0, 0, 0, 0, 0,
    0, 0, 0, 0, 0,
    0, 0, 0, 0, 0,
    0, 0, 0, 0, 0,
    0, 0, 0, 0, 0,
    0, 0, 0, 0, 0,
    0, 0, 0, 0, 0,
    0, 0, 0, 0, 0,
    0, 0, 0, 0, 0,
    0, 0, 0, 0, 0,
    0, 0, 0, 0, 0,
    0, 0, 0, 0, 0,
    0, 0, 0, 0, 0,
    0, 0, 0, 0, 0,
    0, 0, 0, 0, 0,
    0, 0, 0, 0, 0,
    0, 0, 0, 0, 0,
    0, 0, 0, 0, 0,
    0, 0, 0, 0, 0,
    0, 0, 0, 0, 0,
    0, 0, 0, 0, 0,
    0, 0, 0, 0, 0,
    0, 0, 0, 0, 0,
    0, 0, 0, 0, 0,
    0, 0, 0, 0, 0,
    0, 0, 0, 0, 0,
    0, 0, 0, 0, 0,
    0, 0, 0, 0, 0,
    0, 0, 0, 0, 0,
    0, 0, 0, 0, 0,
    0, 0, 0, 0, 0,
    0, 0, 0, 0, 0,
    0, 0, 0, 0, 0,
    0, 0, 0, 0, 0,
    0, 0, 0, 0, 0,
    0, 0, 0, 0, 0,
    0, 0, 0, 0, 0,
    0, 0, 0, 0, 0,
    0, 0, 0, 0, 0,
    0, 0, 0, 0, 0,
    0, 0, 0, 0, 0,
    0, 0, 0, 0, 0,
    0, 0, 0, 0, 0,
    0, 0, 0, 0, 0,
    0, 0, 0, 0, 0,
    0, 0, 0, 0, 0,
    0, 0, 0, 0, 0,
    0, 0, 0, 0, 0,
    0, 0, 0, 0, 0,
    0, 0, 0, 0, 0,
    0, 0, 0, 0, 0,
    0, 0, 0, 0, 0,
    0, 0, 0, 0, 0,
    0, 0, 0, 0, 0,
    0, 0, 0, 0, 0,
    0, 0, 0, 0, 0,
    0, 0, 0, 0, 0,
    0, 0, 0, 0, 0,
    0, 0, 0, 0, 0,
    0, 0, 0, 0, 0,
    0, 0, 0, 0, 0,
    0, 0, 0, 0, 0,
    0, 0, 0, 0, 0,
    0, 0, 0, 0, 0,
    0, 0, 0, 0, 0,
    0, 0, 0, 0, 0,
    0, 0, 0, 0, 0,
    0, 0, 0, 0, 0,
    0, 0, 0, 0, 0,
    0, 0, 0, 0, 0,
    0, 0, 0, 0, 0,
    0, 0, 0, 0, 0,
    0, 0, 0, 0, 0,
    0, 0, 0, 0, 0,
    0, 0, 0, 0, 0,
    0, 0, 0, 0, 0,
    0, 0, 0, 0, 0,
    0, 0, 0, 0, 0,
    0, 0, 0, 0, 0,
    0, 0, 0, 0, 0,
    0, 0, 0, 0, 0,
    0, 0, 0, 0, 0,
    0, 0, 0, 0, 0,
    0, 0, 0, 0, 0,
    0, 0, 0, 0, 0,
    0, 0, 0, 0, 0,
    0, 0, 0, 0, 0,

  % k = 3
    0, 0, 0, 0, 0,
    0, 0, 0, 0, 0,
    0, 0, 0, 0, 0,
    0, 0, 0, 0, 0,
    0, 0, 0, 0, 0,
    0, 0, 0, 0, 0,
    0, 0, 0, 0, 0,
    0, 0, 0, 0, 0,
    0, 0, 0, 0, 0,
    0, 0, 0, 0, 0,
    0, 0, 0, 0, 0,
    0, 0, 0, 0, 0,
    0, 0, 0, 0, 0,
    0, 0, 0, 0, 0,
    0, 0, 0, 0, 0,
    0, 0, 0, 0, 0,
    0, 0, 0, 0, 0,
    0, 0, 0, 0, 0,
    0, 0, 0, 0, 0,
    0, 0, 0, 0, 0,
    0, 0, 0, 0, 0,
    0, 0, 0, 0, 0,
    0, 0, 0, 0, 0,
    0, 0, 0, 0, 0,
    0, 0, 0, 0, 0,
    0, 0, 0, 0, 0,
    0, 0, 0, 0, 0,
    0, 0, 0, 0, 0,
    0, 0, 0, 0, 0,
    0, 0, 0, 0, 0,
    0, 0, 0, 0, 0,
    0, 0, 0, 0, 0,
    0, 0, 0, 0, 0,
    0, 0, 0, 0, 0,
    0, 0, 0, 0, 0,
    0, 0, 0, 0, 0,
    0, 0, 0, 0, 0,
    0, 0, 0, 0, 0,
    0, 0, 0, 0, 0,
    0, 0, 0, 0, 0,
    0, 0, 0, 0, 0,
    0, 0, 0, 0, 0,
    0, 0, 0, 0, 0,
    0, 0, 0, 0, 0,
    0, 0, 0, 0, 0,
    0, 0, 0, 0, 0,
    0, 0, 0, 0, 0,
    0, 0, 0, 0, 0,
    0, 0, 0, 0, 0,
    0, 0, 0, 0, 0,
    0, 0, 0, 0, 0,
    0, 0, 0, 0, 0,
    0, 0, 0, 0, 0,
    0, 0, 0, 0, 0,
    0, 0, 0, 0, 0,
    0, 0, 0, 0, 0,
    0, 0, 0, 0, 0,
    0, 0, 0, 0, 0,
    0, 0, 0, 0, 0,
    0, 0, 0, 0, 0,
    0, 0, 0, 0, 0,
    0, 0, 0, 0, 0,
    0, 0, 0, 0, 0,
    0, 0, 0, 0, 0,
    0, 0, 0, 0, 0,
    0, 0, 0, 0, 0,
    0, 0, 0, 0, 0,
    0, 0, 0, 0, 0,
    0, 0, 0, 0, 0,
    0, 0, 0, 0, 0,
    0, 0, 0, 0, 0,
    0, 0, 0, 0, 0,
    0, 0, 0, 0, 0,
    0, 0, 0, 0, 0,
    0, 0, 0, 0, 0,
    0, 0, 0, 0, 0,
    0, 0, 0, 0, 0,
    0, 0, 0, 0, 0,
    0, 0, 0, 0, 0,
    0, 0, 0, 0, 0,
    0, 0, 0, 0, 0,
    0, 0, 0, 0, 0,
    0, 0, 0, 0, 0,
    0, 0, 0, 0, 0,
    0, 0, 0, 0, 0,
    0, 0, 0, 0, 0,
    0, 0, 0, 0, 0,
    0, 0, 0, 0, 0,
    0, 0, 0, 0, 0,
    0, 0, 0, 0, 0,
    0, 0, 0, 0, 0,
    0, 0, 0, 0, 0,
    0, 0, 0, 0, 0,
    0, 0, 0, 0, 0,
    0, 0, 0, 0, 0,
    0, 0, 0, 0, 0,
    0, 0, 0, 0, 0,
    0, 0, 0, 0, 0,
    0, 0, 0, 0, 0,
    0, 0, 0, 0, 0,
    0, 0, 0, 0, 0,
    0, 0, 0, 0, 0,
    0, 0, 0, 0, 0,
    0, 0, 0, 0, 0,
    0, 0, 0, 0, 0,
    0, 0, 0, 0, 0,
    0, 0, 0, 0, 0,
    0, 0, 0, 0, 0,
    0, 0, 0, 0, 0,
    0, 0, 0, 0, 0,
    0, 0, 0, 0, 0,
    0, 0, 0, 0, 0,
    0, 0, 0, 0, 0,
    0, 0, 0, 0, 0,
    0, 0, 0, 0, 0,
    0, 0, 0, 0, 0,
    0, 0, 0, 0, 0,
    0, 0, 0, 0, 0,
    0, 0, 0, 0, 0,
    0, 0, 0, 0, 0,
    0, 0, 0, 0, 0,
    0, 0, 0, 0, 0,
    0, 0, 0, 0, 0,
    0, 0, 0, 0, 0,
    0, 0, 0, 0, 0,
    0, 0, 0, 0, 0,
    0, 0, 0, 0, 0,
    0, 0, 0, 0, 0,
    0, 0, 0, 0, 0,
    0, 0, 0, 0, 0,
    0, 0, 0, 0, 0,
    0, 0, 0, 0, 0,
    0, 0, 0, 0, 0,
    0, 0, 0, 0, 0,
    0, 0, 0, 0, 0,
    0, 0, 0, 0, 0,
    0, 0, 0, 0, 0,
    0, 0, 0, 0, 0,
    0, 0, 0, 0, 0,
    0, 0, 0, 0, 0,
    0, 0, 0, 0, 0,
    0, 0, 0, 0, 0,
    0, 0, 0, 0, 0,
    0, 0, 0, 0, 0,
    0, 0, 0, 0, 0,
    0, 0, 0, 0, 0,
    0, 0, 0, 0, 0,
    0, 0, 0, 0, 0,
    0, 0, 0, 0, 0,
    0, 0, 0, 0, 0,
    0, 0, 0, 0, 0,
    0, 0, 0, 0, 0,
    0, 0, 0, 0, 0,
    0, 0, 0, 0, 0,
    0, 0, 0, 0, 0,
    0, 0, 0, 0, 0,
    0, 0, 0, 0, 0,
    0, 0, 0, 0, 0,
    0, 0, 0, 0, 0,
    0, 0, 0, 0, 0,
    0, 0, 0, 0, 0,
    0, 0, 0, 0, 0,
    0, 0, 0, 0, 0,
    0, 0, 0, 0, 0,
    0, 0, 0, 0, 0,
    0, 0, 0, 0, 0,
    0, 0, 0, 0, 0,
    0, 0, 0, 0, 0,
    0, 0, 0, 0, 0,
    0, 0, 0, 0, 0,
    0, 0, 0, 0, 0,
    0, 0, 0, 0, 0,
    0, 0, 0, 0, 0,
    0, 0, 0, 0, 0,
    0, 0, 0, 0, 0,
    0, 0, 0, 0, 0,
    0, 0, 0, 0, 0,
    0, 0, 0, 0, 0,
    0, 0, 0, 0, 0,
    0, 0, 0, 0, 0,
    0, 0, 0, 0, 0,
    0, 0, 0, 0, 0,
    0, 0, 0, 0, 0,
    0, 0, 0, 0, 0,
    0, 0, 0, 0, 0,
    0, 0, 0, 0, 0,
    0, 0, 0, 0, 0,
    0, 0, 0, 0, 0,
    0, 0, 0, 0, 0,
    0, 0, 0, 0, 0,
    0, 0, 0, 0, 0,
    0, 0, 0, 0, 0,
    0, 0, 0, 0, 0,
    0, 0, 0, 0, 0,
    0, 0, 0, 0, 0,

  % k = 4
    0, 0, 0, 0, 0,
    0, 0, 0, 0, 0,
    0, 0, 0, 0, 0,
    0, 0, 0, 0, 0,
    0, 0, 0, 0, 0,
    0, 0, 0, 0, 0,
    0, 0, 0, 0, 0,
    0, 0, 0, 0, 0,
    0, 0, 0, 0, 0,
    0, 0, 0, 0, 0,
    0, 0, 0, 0, 0,
    0, 0, 0, 0, 0,
    0, 0, 0, 0, 0,
    0, 0, 0, 0, 0,
    0, 0, 0, 0, 0,
    0, 0, 0, 0, 0,
    0, 0, 0, 0, 0,
    0, 0, 0, 0, 0,
    0, 0, 0, 0, 0,
    0, 0, 0, 0, 0,
    0, 0, 0, 0, 0,
    0, 0, 0, 0, 0,
    0, 0, 0, 0, 0,
    0, 0, 0, 0, 0,
    0, 0, 0, 0, 0,
    0, 0, 0, 0, 0,
    0, 0, 0, 0, 0,
    0, 0, 0, 0, 0,
    0, 0, 0, 0, 0,
    0, 0, 0, 0, 0,
    0, 0, 0, 0, 0,
    0, 0, 0, 0, 0,
    0, 0, 0, 0, 0,
    0, 0, 0, 0, 0,
    0, 0, 0, 0, 0,
    0, 0, 0, 0, 0,
    0, 0, 0, 0, 0,
    0, 0, 0, 0, 0,
    0, 0, 0, 0, 0,
    0, 0, 0, 0, 0,
    0, 0, 0, 0, 0,
    0, 0, 0, 0, 0,
    0, 0, 0, 0, 0,
    0, 0, 0, 0, 0,
    0, 0, 0, 0, 0,
    0, 0, 0, 0, 0,
    0, 0, 0, 0, 0,
    0, 0, 0, 0, 0,
    0, 0, 0, 0, 0,
    0, 0, 0, 0, 0,
    0, 0, 0, 0, 0,
    0, 0, 0, 0, 0,
    0, 0, 0, 0, 0,
    0, 0, 0, 0, 0,
    0, 0, 0, 0, 0,
    0, 0, 0, 0, 0,
    0, 0, 0, 0, 0,
    0, 0, 0, 0, 0,
    0, 0, 0, 0, 0,
    0, 0, 0, 0, 0,
    0, 0, 0, 0, 0,
    0, 0, 0, 0, 0,
    0, 0, 0, 0, 0,
    0, 0, 0, 0, 0,
    0, 0, 0, 0, 0,
    0, 0, 0, 0, 0,
    0, 0, 0, 0, 0,
    0, 0, 0, 0, 0,
    0, 0, 0, 0, 0,
    0, 0, 0, 0, 0,
    0, 0, 0, 0, 0,
    0, 0, 0, 0, 0,
    0, 0, 0, 0, 0,
    0, 0, 0, 0, 0,
    0, 0, 0, 0, 0,
    0, 0, 0, 0, 0,
    0, 0, 0, 0, 0,
    0, 0, 0, 0, 0,
    0, 0, 0, 0, 0,
    0, 0, 0, 0, 0,
    0, 0, 0, 0, 0,
    0, 0, 0, 0, 0,
    0, 0, 0, 0, 0,
    0, 0, 0, 0, 0,
    0, 0, 0, 0, 0,
    0, 0, 0, 0, 0,
    0, 0, 0, 0, 0,
    0, 0, 0, 0, 0,
    0, 0, 0, 0, 0,
    0, 0, 0, 0, 0,
    0, 0, 0, 0, 0,
    0, 0, 0, 0, 0,
    0, 0, 0, 0, 0,
    0, 0, 0, 0, 0,
    0, 0, 0, 0, 0,
    0, 0, 0, 0, 0,
    0, 0, 0, 0, 0,
    0, 0, 0, 0, 0,
    0, 0, 0, 0, 0,
    0, 0, 0, 0, 0,
    0, 0, 0, 0, 0,
    0, 0, 0, 0, 0,
    0, 0, 0, 0, 0,
    0, 0, 0, 0, 0,
    0, 0, 0, 0, 0,
    0, 0, 0, 0, 0,
    0, 0, 0, 0, 0,
    0, 0, 0, 0, 0,
    0, 0, 0, 0, 0,
    0, 0, 0, 0, 0,
    0, 0, 0, 0, 0,
    0, 0, 0, 0, 0,
    0, 0, 0, 0, 0,
    0, 0, 0, 0, 0,
    0, 0, 0, 0, 0,
    0, 0, 0, 0, 0,
    0, 0, 0, 0, 0,
    0, 0, 0, 0, 0,
    0, 0, 0, 0, 0,
    0, 0, 0, 0, 0,
    0, 0, 0, 0, 0,
    0, 0, 0, 0, 0,
    0, 0, 0, 0, 0,
    0, 0, 0, 0, 0,
    0, 0, 0, 0, 0,
    0, 0, 0, 0, 0,
    0, 0, 0, 0, 0,
    0, 0, 0, 0, 0,
    0, 0, 0, 0, 0,
    0, 0, 0, 0, 0,
    0, 0, 0, 0, 0,
    0, 0, 0, 0, 0,
    0, 0, 0, 0, 0,
    0, 0, 0, 0, 0,
    0, 0, 0, 0, 0,
    0, 0, 0, 0, 0,
    0, 0, 0, 0, 0,
    0, 0, 0, 0, 0,
    0, 0, 0, 0, 0,
    0, 0, 0, 0, 0,
    0, 0, 0, 0, 0,
    0, 0, 0, 0, 0,
    0, 0, 0, 0, 0,
    0, 0, 0, 0, 0,
    0, 0, 0, 0, 0,
    0, 0, 0, 0, 0,
    0, 0, 0, 0, 0,
    0, 0, 0, 0, 0,
    0, 0, 0, 0, 0,
    0, 0, 0, 0, 0,
    0, 0, 0, 0, 0,
    0, 0, 0, 0, 0,
    0, 0, 0, 0, 0,
    0, 0, 0, 0, 0,
    0, 0, 0, 0, 0,
    0, 0, 0, 0, 0,
    0, 0, 0, 0, 0,
    0, 0, 0, 0, 0,
    0, 0, 0, 0, 0,
    0, 0, 0, 0, 0,
    0, 0, 0, 0, 0,
    0, 0, 0, 0, 0,
    0, 0, 0, 0, 0,
    0, 0, 0, 0, 0,
    0, 0, 0, 0, 0,
    0, 0, 0, 0, 0,
    0, 0, 0, 0, 0,
    0, 0, 0, 0, 0,
    0, 0, 0, 0, 0,
    0, 0, 0, 0, 0,
    0, 0, 0, 0, 0,
    0, 0, 0, 0, 0,
    0, 0, 0, 0, 0,
    0, 0, 0, 0, 0,
    0, 0, 0, 0, 0,
    0, 0, 0, 0, 0,
    0, 0, 0, 0, 0,
    0, 0, 0, 0, 0,
    0, 0, 0, 0, 0,
    0, 0, 0, 0, 0,
    0, 0, 0, 0, 0,
    0, 0, 0, 0, 0,
    0, 0, 0, 0, 0,
    0, 0, 0, 0, 0,
    0, 0, 0, 0, 0,
    0, 0, 0, 0, 0,
    0, 0, 0, 0, 0,
    0, 0, 0, 0, 0,
    0, 0, 0, 0, 0,
    0, 0, 0, 0, 0,
    0, 0, 0, 0, 0,
    0, 0, 0, 0, 0,
    0, 0, 0, 0, 0,
    0, 0, 0, 0, 0,
    0, 0, 0, 0, 0
]);
d_nfa = array3d(1..4, 1..195, 1..5, [
  % k = 1
    {3, 26, 59, 80, 115, 134, 144, 164}, {2, 25, 58, 79, 114, 133, 143, 163}, {2, 25, 58, 79, 114, 133, 143, 163}, {2, 25, 58, 79, 114, 133, 143, 163}, {2, 25, 58, 79, 114, 133, 143, 163},
    {3}, {2}, {2}, {2}, {2},
    {4}, {}, {}, {}, {},
    {5}, {}, {}, {}, {},
    {6}, {}, {}, {}, {},
    {7}, {}, {}, {}, {},
    {8}, {}, {}, {}, {},
    {}, {9}, {9}, {9}, {9},
    {10}, {}, {}, {}, {},
    {11}, {}, {}, {}, {},
    {}, {12}, {12}, {12}, {12},
    {}, {13}, {13}, {13}, {13},
    {}, {14}, {14}, {14}, {14},
    {}, {15}, {15}, {15}, {15},
    {}, {16}, {16}, {16}, {16},
    {17}, {}, {}, {}, {},
    {18}, {}, {}, {}, {},
    {}, {19}, {19}, {19}, {19},
    {}, {20}, {20}, {20}, {20},
    {}, {21}, {21}, {21}, {21},
    {}, {22}, {22}, {22}, {22},
    {}, {23}, {23}, {23}, {23},
    {24}, {}, {}, {}, {},
    {}, {24}, {24}, {24}, {24},
    {26}, {25}, {25}, {25}, {25},
    {27}, {}, {}, {}, {},
    {28}, {}, {}, {}, {},
    {29}, {}, {}, {}, {},
    {}, {30}, {30}, {30}, {30},
    {}, {31}, {31}, {31}, {31},
    {}, {32}, {32}, {32}, {32},
    {}, {33}, {33}, {33}, {33},
    {34}, {}, {}, {}, {},
    {35}, {}, {}, {}, {},
    {36}, {}, {}, {}, {},
    {}, {37}, {37}, {37}, {37},
    {}, {38}, {38}, {38}, {38},
    {}, {39}, {39}, {39}, {39},
    {}, {40}, {40}, {40}, {40},
    {}, {41}, {41}, {41}, {41},
    {}, {42}, {42}, {42}, {42},
    {43}, {}, {}, {}, {},
    {}, {44}, {44}, {44}, {44},
    {}, {45}, {45}, {45}, {45},
    {}, {46}, {46}, {46}, {46},
    {}, {47}, {47}, {47}, {47},
    {}, {48}, {48}, {48}, {48},
    {}, {49}, {49}, {49}, {49},
    {50}, {}, {}, {}, {},
    {}, {51}, {51}, {51}, {51},
    {}, {52}, {52}, {52}, {52},
    {}, {53}, {53}, {53}, {53},
    {}, {54}, {54}, {54}, {54},
    {}, {55}, {55}, {55}, {55},
    {}, {56}, {56}, {56}, {56},
    {57}, {}, {}, {}, {},
    {}, {18}, {18}, {18}, {18},
    {59}, {58}, {58}, {58}, {58},
    {}, {60}, {60}, {60}, {60},
    {}, {61}, {61}, {61}, {61},
    {}, {62}, {62}, {62}, {62},
    {}, {63}, {63}, {63}, {63},
    {}, {64}, {64}, {64}, {64},
    {65}, {}, {}, {}, {},
    {66}, {}, {}, {}, {},
    {}, {67}, {67}, {67}, {67},
    {}, {68}, {68}, {68}, {68},
    {}, {69}, {69}, {69}, {69},
    {}, {70}, {70}, {70}, {70},
    {}, {71}, {71}, {71}, {71},
    {72}, {}, {}, {}, {},
    {73}, {}, {}, {}, {},
    {}, {74}, {74}, {74}, {74},
    {75}, {}, {}, {}, {},
    {76}, {}, {}, {}, {},
    {77}, {}, {}, {}, {},
    {78}, {}, {}, {}, {},
    {23}, {}, {}, {}, {},
    {80}, {79}, {79}, {79}, {79},
    {}, {81}, {81}, {81}, {81},
    {}, {82}, {82}, {82}, {82},
    {}, {83}, {83}, {83}, {83},
    {}, {84}, {84}, {84}, {84},
    {}, {85}, {85}, {85}, {85},
    {}, {86}, {86}, {86}, {86},
    {87}, {}, {}, {}, {},
    {}, {88}, {88}, {88}, {88},
    {}, {89}, {89}, {89}, {89},
    {}, {90}, {90}, {90}, {90},
    {}, {91}, {91}, {91}, {91},
    {}, {92}, {92}, {92}, {92},
    {}, {93}, {93}, {93}, {93},
    {94}, {}, {}, {}, {},
    {}, {95}, {95}, {95}, {95},
    {}, {96}, {96}, {96}, {96},
    {}, {97}, {97}, {97}, {97},
    {}, {98}, {98}, {98}, {98},
    {}, {99}, {99}, {99}, {99},
    {}, {100}, {100}, {100}, {100},
    {101}, {}, {}, {}, {},
    {}, {102}, {102}, {102}, {102},
    {}, {103}, {103}, {103}, {103},
    {}, {104}, {104}, {104}, {104},
    {}, {105}, {105}, {105}, {105},
    {}, {106}, {106}, {106}, {106},
    {}, {107}, {107}, {107}, {107},
    {108}, {}, {}, {}, {},
    {109}, {}, {}, {}, {},
    {110}, {}, {}, {}, {},
    {}, {111}, {111}, {111}, {111},
    {}, {112}, {112}, {112}, {112},
    {}, {113}, {113}, {113}, {113},
    {}, {76}, {76}, {76}, {76},
    {115}, {114}, {114}, {114}, {114},
    {116}, {}, {}, {}, {},
    {117}, {}, {}, {}, {},
    {118}, {}, {}, {}, {},
    {119}, {}, {}, {}, {},
    {120}, {}, {}, {}, {},
    {}, {121}, {121}, {121}, {121},
    {}, {122}, {122}, {122}, {122},
    {}, {123}, {123}, {123}, {123},
    {}, {124}, {124}, {124}, {124},
    {}, {125}, {125}, {125}, {125},
    {126}, {}, {}, {}, {},
    {127}, {}, {}, {}, {},
    {}, {128}, {128}, {128}, {128},
    {}, {129}, {129}, {129}, {129},
    {}, {130}, {130}, {130}, {130},
    {}, {131}, {131}, {131}, {131},
    {}, {132}, {132}, {132}, {132},
    {56}, {}, {}, {}, {},
    {134}, {133}, {133}, {133}, {133},
    {135}, {}, {}, {}, {},
    {136}, {}, {}, {}, {},
    {137}, {}, {}, {}, {},
    {}, {138}, {138}, {138}, {138},
    {}, {139}, {139}, {139}, {139},
    {}, {140}, {140}, {140}, {140},
    {141}, {}, {}, {}, {},
    {142}, {}, {}, {}, {},
    {38}, {}, {}, {}, {},
    {144}, {143}, {143}, {143}, {143},
    {}, {145}, {145}, {145}, {145},
    {}, {146}, {146}, {146}, {146},
    {}, {147}, {147}, {147}, {147},
    {}, {148}, {148}, {148}, {148},
    {}, {149}, {149}, {149}, {149},
    {}, {150}, {150}, {150}, {150},
    {151}, {}, {}, {}, {},
    {152}, {}, {}, {}, {},
    {}, {153}, {153}, {153}, {153},
    {}, {154}, {154}, {154}, {154},
    {}, {155}, {155}, {155}, {155},
    {}, {156}, {156}, {156}, {156},
    {}, {157}, {157}, {157}, {157},
    {158}, {}, {}, {}, {},
    {159}, {}, {}, {}, {},
    {}, {160}, {160}, {160}, {160},
    {}, {161}, {161}, {161}, {161},
    {}, {162}, {162}, {162}, {162},
    {}, {73}, {73}, {73}, {73},
    {164}, {163}, {163}, {163}, {163},
    {}, {165}, {165}, {165}, {165},
    {}, {166}, {166}, {166}, {166},
    {}, {167}, {167}, {167}, {167},
    {}, {168}, {168}, {168}, {168},
    {}, {169}, {169}, {169}, {169},
    {}, {170}, {170}, {170}, {170},
    {171}, {}, {}, {}, {},
    {}, {172}, {172}, {172}, {172},
    {}, {173}, {173}, {173}, {173},
    {}, {174}, {174}, {174}, {174},
    {}, {175}, {175}, {175}, {175},
    {}, {176}, {176}, {176}, {176},
    {}, {177}, {177}, {177}, {177},
    {178}, {}, {}, {}, {},
    {}, {179}, {179}, {179}, {179},
    {}, {180}, {180}, {180}, {180},
    {}, {181}, {181}, {181}, {181},
    {}, {182}, {182}, {182}, {182},
    {}, {183}, {183}, {183}, {183},
    {}, {184}, {184}, {184}, {184},
    {185}, {}, {}, {}, {},
    {}, {186}, {186}, {186}, {186},
    {}, {187}, {187}, {187}, {187},
    {}, {188}, {188}, {188}, {188},
    {}, {189}, {189}, {189}, {189},
    {190}, {}, {}, {}, {},
    {191}, {}, {}, {}, {},
    {111}, {}, {}, {}, {},
    {}, {}, {}, {}, {},
    {}, {}, {}, {}, {},
    {}, {}, {}, {}, {},
    {}, {}, {}, {}, {},

  % k = 2
    {2, 32, 64, 85, 110, 136, 151, 176}, {3, 33, 65, 86, 111, 137, 152, 177}, {2, 32, 64, 85, 110, 136, 151, 176}, {2, 32, 64, 85, 110, 136, 151, 176}, {2, 32, 64, 85, 110, 136, 151, 176},
    {2}, {3}, {2}, {2}, {2},
    {}, {4}, {}, {}, {},
    {}, {5}, {}, {}, {},
    {6}, {}, {6}, {6}, {6},
    {7}, {}, {7}, {7}, {7},
    {8}, {}, {8}, {8}, {8},
    {9}, {}, {9}, {9}, {9},
    {}, {10}, {}, {}, {},
    {11}, {}, {11}, {11}, {11},
    {12}, {}, {12}, {12}, {12},
    {13}, {}, {13}, {13}, {13},
    {14}, {}, {14}, {14}, {14},
    {15}, {}, {15}, {15}, {15},
    {}, {16}, {}, {}, {},
    {}, {17}, {}, {}, {},
    {18}, {}, {18}, {18}, {18},
    {19}, {}, {19}, {19}, {19},
    {20}, {}, {20}, {20}, {20},
    {21}, {}, {21}, {21}, {21},
    {22}, {}, {22}, {22}, {22},
    {}, {23}, {}, {}, {},
    {}, {24}, {}, {}, {},
    {25}, {}, {25}, {25}, {25},
    {26}, {}, {26}, {26}, {26},
    {27}, {}, {27}, {27}, {27},
    {28}, {}, {28}, {28}, {28},
    {}, {29}, {}, {}, {},
    {}, {30}, {}, {}, {},
    {}, {31}, {}, {}, {},
    {31}, {}, {31}, {31}, {31},
    {32}, {33}, {32}, {32}, {32},
    {34}, {}, {34}, {34}, {34},
    {35}, {}, {35}, {35}, {35},
    {36}, {}, {36}, {36}, {36},
    {37}, {}, {37}, {37}, {37},
    {38}, {}, {38}, {38}, {38},
    {39}, {}, {39}, {39}, {39},
    {}, {40}, {}, {}, {},
    {}, {41}, {}, {}, {},
    {}, {42}, {}, {}, {},
    {43}, {}, {43}, {43}, {43},
    {44}, {}, {44}, {44}, {44},
    {45}, {}, {45}, {45}, {45},
    {46}, {}, {46}, {46}, {46},
    {}, {47}, {}, {}, {},
    {}, {48}, {}, {}, {},
    {}, {49}, {}, {}, {},
    {}, {50}, {}, {}, {},
    {}, {51}, {}, {}, {},
    {52}, {}, {52}, {52}, {52},
    {53}, {}, {53}, {53}, {53},
    {54}, {}, {54}, {54}, {54},
    {55}, {}, {55}, {55}, {55},
    {56}, {}, {56}, {56}, {56},
    {57}, {}, {57}, {57}, {57},
    {}, {58}, {}, {}, {},
    {59}, {}, {59}, {59}, {59},
    {60}, {}, {60}, {60}, {60},
    {61}, {}, {61}, {61}, {61},
    {62}, {}, {62}, {62}, {62},
    {63}, {}, {63}, {63}, {63},
    {30}, {}, {30}, {30}, {30},
    {64}, {65}, {64}, {64}, {64},
    {}, {66}, {}, {}, {},
    {}, {67}, {}, {}, {},
    {68}, {}, {68}, {68}, {68},
    {69}, {}, {69}, {69}, {69},
    {70}, {}, {70}, {70}, {70},
    {71}, {}, {71}, {71}, {71},
    {}, {72}, {}, {}, {},
    {}, {73}, {}, {}, {},
    {74}, {}, {74}, {74}, {74},
    {75}, {}, {75}, {75}, {75},
    {76}, {}, {76}, {76}, {76},
    {77}, {}, {77}, {77}, {77},
    {78}, {}, {78}, {78}, {78},
    {}, {79}, {}, {}, {},
    {}, {80}, {}, {}, {},
    {81}, {}, {81}, {81}, {81},
    {82}, {}, {82}, {82}, {82},
    {83}, {}, {83}, {83}, {83},
    {84}, {}, {84}, {84}, {84},
    {23}, {}, {23}, {23}, {23},
    {85}, {86}, {85}, {85}, {85},
    {87}, {}, {87}, {87}, {87},
    {88}, {}, {88}, {88}, {88},
    {89}, {}, {89}, {89}, {89},
    {90}, {}, {90}, {90}, {90},
    {91}, {}, {91}, {91}, {91},
    {92}, {}, {92}, {92}, {92},
    {}, {93}, {}, {}, {},
    {94}, {}, {94}, {94}, {94},
    {95}, {}, {95}, {95}, {95},
    {96}, {}, {96}, {96}, {96},
    {97}, {}, {97}, {97}, {97},
    {98}, {}, {98}, {98}, {98},
    {99}, {}, {99}, {99}, {99},
    {}, {100}, {}, {}, {},
    {}, {101}, {}, {}, {},
    {}, {102}, {}, {}, {},
    {}, {103}, {}, {}, {},
    {}, {104}, {}, {}, {},
    {105}, {}, {105}, {105}, {105},
    {106}, {}, {106}, {106}, {106},
    {107}, {}, {107}, {107}, {107},
    {108}, {}, {108}, {108}, {108},
    {}, {109}, {}, {}, {},
    {}, {57}, {}, {}, {},
    {110}, {111}, {110}, {110}, {110},
    {}, {112}, {}, {}, {},
    {}, {113}, {}, {}, {},
    {114}, {}, {114}, {114}, {114},
    {115}, {}, {115}, {115}, {115},
    {116}, {}, {116}, {116}, {116},
    {117}, {}, {117}, {117}, {117},
    {118}, {}, {118}, {118}, {118},
    {119}, {}, {119}, {119}, {119},
    {}, {120}, {}, {}, {},
    {121}, {}, {121}, {121}, {121},
    {122}, {}, {122}, {122}, {122},
    {123}, {}, {123}, {123}, {123},
    {124}, {}, {124}, {124}, {124},
    {125}, {}, {125}, {125}, {125},
    {126}, {}, {126}, {126}, {126},
    {}, {127}, {}, {}, {},
    {}, {128}, {}, {}, {},
    {129}, {}, {129}, {129}, {129},
    {130}, {}, {130}, {130}, {130},
    {131}, {}, {131}, {131}, {131},
    {132}, {}, {132}, {132}, {132},
    {133}, {}, {133}, {133}, {133},
    {}, {134}, {}, {}, {},
    {}, {135}, {}, {}, {},
    {24}, {}, {24}, {24}, {24},
    {136}, {137}, {136}, {136}, {136},
    {138}, {}, {138}, {138}, {138},
    {139}, {}, {139}, {139}, {139},
    {140}, {}, {140}, {140}, {140},
    {141}, {}, {141}, {141}, {141},
    {}, {142}, {}, {}, {},
    {}, {143}, {}, {}, {},
    {}, {144}, {}, {}, {},
    {145}, {}, {145}, {145}, {145},
    {146}, {}, {146}, {146}, {146},
    {}, {147}, {}, {}, {},
    {}, {148}, {}, {}, {},
    {}, {149}, {}, {}, {},
    {}, {150}, {}, {}, {},
    {}, {55}, {}, {}, {},
    {151}, {152}, {151}, {151}, {151},
    {}, {153}, {}, {}, {},
    {}, {154}, {}, {}, {},
    {155}, {}, {155}, {155}, {155},
    {156}, {}, {156}, {156}, {156},
    {157}, {}, {157}, {157}, {157},
    {158}, {}, {158}, {158}, {158},
    {159}, {}, {159}, {159}, {159},
    {}, {160}, {}, {}, {},
    {}, {161}, {}, {}, {},
    {162}, {}, {162}, {162}, {162},
    {163}, {}, {163}, {163}, {163},
    {164}, {}, {164}, {164}, {164},
    {165}, {}, {165}, {165}, {165},
    {166}, {}, {166}, {166}, {166},
    {}, {167}, {}, {}, {},
    {}, {168}, {}, {}, {},
    {169}, {}, {169}, {169}, {169},
    {170}, {}, {170}, {170}, {170},
    {171}, {}, {171}, {171}, {171},
    {172}, {}, {172}, {172}, {172},
    {173}, {}, {173}, {173}, {173},
    {174}, {}, {174}, {174}, {174},
    {}, {175}, {}, {}, {},
    {135}, {}, {135}, {135}, {135},
    {176}, {177}, {176}, {176}, {176},
    {178}, {}, {178}, {178}, {178},
    {179}, {}, {179}, {179}, {179},
    {180}, {}, {180}, {180}, {180},
    {181}, {}, {181}, {181}, {181},
    {182}, {}, {182}, {182}, {182},
    {183}, {}, {183}, {183}, {183},
    {}, {184}, {}, {}, {},
    {185}, {}, {185}, {185}, {185},
    {186}, {}, {186}, {186}, {186},
    {}, {187}, {}, {}, {},
    {}, {188}, {}, {}, {},
    {}, {189}, {}, {}, {},
    {}, {190}, {}, {}, {},
    {}, {191}, {}, {}, {},
    {192}, {}, {192}, {192}, {192},
    {193}, {}, {193}, {193}, {193},
    {}, {194}, {}, {}, {},
    {}, {195}, {}, {}, {},
    {}, {60}, {}, {}, {},

  % k = 3
    {2, 32, 48, 76, 91, 94, 105, 131}, {2, 32, 48, 76, 91, 94, 105, 131}, {3, 33, 49, 77, 92, 95, 106, 132}, {2, 32, 48, 76, 91, 94, 105, 131}, {2, 32, 48, 76, 91, 94, 105, 131},
    {2}, {2}, {3}, {2}, {2},
    {4}, {4}, {}, {4}, {4},
    {5}, {5}, {}, {5}, {5},
    {6}, {6}, {}, {6}, {6},
    {7}, {7}, {}, {7}, {7},
    {}, {}, {8}, {}, {},
    {}, {}, {9}, {}, {},
    {}, {}, {10}, {}, {},
    {11}, {11}, {}, {11}, {11},
    {12}, {12}, {}, {12}, {12},
    {13}, {13}, {}, {13}, {13},
    {14}, {14}, {}, {14}, {14},
    {}, {}, {15}, {}, {},
    {}, {}, {16}, {}, {},
    {}, {}, {17}, {}, {},
    {18}, {18}, {}, {18}, {18},
    {19}, {19}, {}, {19}, {19},
    {20}, {20}, {}, {20}, {20},
    {21}, {21}, {}, {21}, {21},
    {}, {}, {22}, {}, {},
    {}, {}, {23}, {}, {},
    {}, {}, {24}, {}, {},
    {25}, {25}, {}, {25}, {25},
    {26}, {26}, {}, {26}, {26},
    {27}, {27}, {}, {27}, {27},
    {28}, {28}, {}, {28}, {28},
    {}, {}, {29}, {}, {},
    {}, {}, {30}, {}, {},
    {}, {}, {31}, {}, {},
    {31}, {31}, {}, {31}, {31},
    {32}, {32}, {33}, {32}, {32},
    {}, {}, {34}, {}, {},
    {}, {}, {35}, {}, {},
    {}, {}, {36}, {}, {},
    {37}, {37}, {}, {37}, {37},
    {38}, {38}, {}, {38}, {38},
    {39}, {39}, {}, {39}, {39},
    {}, {}, {40}, {}, {},
    {}, {}, {41}, {}, {},
    {}, {}, {42}, {}, {},
    {}, {}, {43}, {}, {},
    {44}, {44}, {}, {44}, {44},
    {45}, {45}, {}, {45}, {45},
    {46}, {46}, {}, {46}, {46},
    {}, {}, {47}, {}, {},
    {}, {}, {28}, {}, {},
    {48}, {48}, {49}, {48}, {48},
    {}, {}, {50}, {}, {},
    {}, {}, {51}, {}, {},
    {52}, {52}, {}, {52}, {52},
    {53}, {53}, {}, {53}, {53},
    {54}, {54}, {}, {54}, {54},
    {55}, {55}, {}, {55}, {55},
    {}, {}, {56}, {}, {},
    {}, {}, {57}, {}, {},
    {}, {}, {58}, {}, {},
    {59}, {59}, {}, {59}, {59},
    {60}, {60}, {}, {60}, {60},
    {61}, {61}, {}, {61}, {61},
    {62}, {62}, {}, {62}, {62},
    {}, {}, {63}, {}, {},
    {}, {}, {64}, {}, {},
    {}, {}, {65}, {}, {},
    {66}, {66}, {}, {66}, {66},
    {67}, {67}, {}, {67}, {67},
    {68}, {68}, {}, {68}, {68},
    {69}, {69}, {}, {69}, {69},
    {}, {}, {70}, {}, {},
    {}, {}, {71}, {}, {},
    {}, {}, {72}, {}, {},
    {73}, {73}, {}, {73}, {73},
    {74}, {74}, {}, {74}, {74},
    {75}, {75}, {}, {75}, {75},
    {30}, {30}, {}, {30}, {30},
    {76}, {76}, {77}, {76}, {76},
    {}, {}, {78}, {}, {},
    {}, {}, {79}, {}, {},
    {}, {}, {80}, {}, {},
    {}, {}, {81}, {}, {},
    {82}, {82}, {}, {82}, {82},
    {83}, {83}, {}, {83}, {83},
    {84}, {84}, {}, {84}, {84},
    {}, {}, {85}, {}, {},
    {}, {}, {86}, {}, {},
    {}, {}, {87}, {}, {},
    {}, {}, {88}, {}, {},
    {89}, {89}, {}, {89}, {89},
    {90}, {90}, {}, {90}, {90},
    {47}, {47}, {}, {47}, {47},
    {91}, {91}, {92}, {91}, {91},
    {93}, {93}, {}, {93}, {93},
    {3}, {3}, {}, {3}, {3},
    {94}, {94}, {95}, {94}, {94},
    {}, {}, {96}, {}, {},
    {}, {}, {97}, {}, {},
    {}, {}, {98}, {}, {},
    {99}, {99}, {}, {99}, {99},
    {100}, {100}, {}, {100}, {100},
    {101}, {101}, {}, {101}, {101},
    {}, {}, {102}, {}, {},
    {}, {}, {103}, {}, {},
    {}, {}, {104}, {}, {},
    {}, {}, {44}, {}, {},
    {105}, {105}, {106}, {105}, {105},
    {}, {}, {107}, {}, {},
    {}, {}, {108}, {}, {},
    {109}, {109}, {}, {109}, {109},
    {110}, {110}, {}, {110}, {110},
    {111}, {111}, {}, {111}, {111},
    {112}, {112}, {}, {112}, {112},
    {}, {}, {113}, {}, {},
    {}, {}, {114}, {}, {},
    {}, {}, {115}, {}, {},
    {116}, {116}, {}, {116}, {116},
    {117}, {117}, {}, {117}, {117},
    {118}, {118}, {}, {118}, {118},
    {119}, {119}, {}, {119}, {119},
    {}, {}, {120}, {}, {},
    {}, {}, {121}, {}, {},
    {}, {}, {122}, {}, {},
    {123}, {123}, {}, {123}, {123},
    {124}, {124}, {}, {124}, {124},
    {125}, {125}, {}, {125}, {125},
    {126}, {126}, {}, {126}, {126},
    {}, {}, {127}, {}, {},
    {}, {}, {128}, {}, {},
    {}, {}, {129}, {}, {},
    {130}, {130}, {}, {130}, {130},
    {72}, {72}, {}, {72}, {72},
    {131}, {131}, {132}, {131}, {131},
    {}, {}, {133}, {}, {},
    {}, {}, {134}, {}, {},
    {}, {}, {135}, {}, {},
    {}, {}, {82}, {}, {},
    {}, {}, {}, {}, {},
    {}, {}, {}, {}, {},
    {}, {}, {}, {}, {},
    {}, {}, {}, {}, {},
    {}, {}, {}, {}, {},
    {}, {}, {}, {}, {},
    {}, {}, {}, {}, {},
    {}, {}, {}, {}, {},
    {}, {}, {}, {}, {},
    {}, {}, {}, {}, {},
    {}, {}, {}, {}, {},
    {}, {}, {}, {}, {},
    {}, {}, {}, {}, {},
    {}, {}, {}, {}, {},
    {}, {}, {}, {}, {},
    {}, {}, {}, {}, {},
    {}, {}, {}, {}, {},
    {}, {}, {}, {}, {},
    {}, {}, {}, {}, {},
    {}, {}, {}, {}, {},
    {}, {}, {}, {}, {},
    {}, {}, {}, {}, {},
    {}, {}, {}, {}, {},
    {}, {}, {}, {}, {},
    {}, {}, {}, {}, {},
    {}, {}, {}, {}, {},
    {}, {}, {}, {}, {},
    {}, {}, {}, {}, {},
    {}, {}, {}, {}, {},
    {}, {}, {}, {}, {},
    {}, {}, {}, {}, {},
    {}, {}, {}, {}, {},
    {}, {}, {}, {}, {},
    {}, {}, {}, {}, {},
    {}, {}, {}, {}, {},
    {}, {}, {}, {}, {},
    {}, {}, {}, {}, {},
    {}, {}, {}, {}, {},
    {}, {}, {}, {}, {},
    {}, {}, {}, {}, {},
    {}, {}, {}, {}, {},
    {}, {}, {}, {}, {},
    {}, {}, {}, {}, {},
    {}, {}, {}, {}, {},
    {}, {}, {}, {}, {},
    {}, {}, {}, {}, {},
    {}, {}, {}, {}, {},
    {}, {}, {}, {}, {},
    {}, {}, {}, {}, {},
    {}, {}, {}, {}, {},
    {}, {}, {}, {}, {},
    {}, {}, {}, {}, {},
    {}, {}, {}, {}, {},
    {}, {}, {}, {}, {},
    {}, {}, {}, {}, {},
    {}, {}, {}, {}, {},
    {}, {}, {}, {}, {},
    {}, {}, {}, {}, {},
    {}, {}, {}, {}, {},
    {}, {}, {}, {}, {},

  % k = 4
    {1}, {1}, {1}, {2}, {1},
    {2}, {2}, {2}, {}, {2},
    {}, {}, {}, {}, {},
    {}, {}, {}, {}, {},
    {}, {}, {}, {}, {},
    {}, {}, {}, {}, {},
    {}, {}, {}, {}, {},
    {}, {}, {}, {}, {},
    {}, {}, {}, {}, {},
    {}, {}, {}, {}, {},
    {}, {}, {}, {}, {},
    {}, {}, {}, {}, {},
    {}, {}, {}, {}, {},
    {}, {}, {}, {}, {},
    {}, {}, {}, {}, {},
    {}, {}, {}, {}, {},
    {}, {}, {}, {}, {},
    {}, {}, {}, {}, {},
    {}, {}, {}, {}, {},
    {}, {}, {}, {}, {},
    {}, {}, {}, {}, {},
    {}, {}, {}, {}, {},
    {}, {}, {}, {}, {},
    {}, {}, {}, {}, {},
    {}, {}, {}, {}, {},
    {}, {}, {}, {}, {},
    {}, {}, {}, {}, {},
    {}, {}, {}, {}, {},
    {}, {}, {}, {}, {},
    {}, {}, {}, {}, {},
    {}, {}, {}, {}, {},
    {}, {}, {}, {}, {},
    {}, {}, {}, {}, {},
    {}, {}, {}, {}, {},
    {}, {}, {}, {}, {},
    {}, {}, {}, {}, {},
    {}, {}, {}, {}, {},
    {}, {}, {}, {}, {},
    {}, {}, {}, {}, {},
    {}, {}, {}, {}, {},
    {}, {}, {}, {}, {},
    {}, {}, {}, {}, {},
    {}, {}, {}, {}, {},
    {}, {}, {}, {}, {},
    {}, {}, {}, {}, {},
    {}, {}, {}, {}, {},
    {}, {}, {}, {}, {},
    {}, {}, {}, {}, {},
    {}, {}, {}, {}, {},
    {}, {}, {}, {}, {},
    {}, {}, {}, {}, {},
    {}, {}, {}, {}, {},
    {}, {}, {}, {}, {},
    {}, {}, {}, {}, {},
    {}, {}, {}, {}, {},
    {}, {}, {}, {}, {},
    {}, {}, {}, {}, {},
    {}, {}, {}, {}, {},
    {}, {}, {}, {}, {},
    {}, {}, {}, {}, {},
    {}, {}, {}, {}, {},
    {}, {}, {}, {}, {},
    {}, {}, {}, {}, {},
    {}, {}, {}, {}, {},
    {}, {}, {}, {}, {},
    {}, {}, {}, {}, {},
    {}, {}, {}, {}, {},
    {}, {}, {}, {}, {},
    {}, {}, {}, {}, {},
    {}, {}, {}, {}, {},
    {}, {}, {}, {}, {},
    {}, {}, {}, {}, {},
    {}, {}, {}, {}, {},
    {}, {}, {}, {}, {},
    {}, {}, {}, {}, {},
    {}, {}, {}, {}, {},
    {}, {}, {}, {}, {},
    {}, {}, {}, {}, {},
    {}, {}, {}, {}, {},
    {}, {}, {}, {}, {},
    {}, {}, {}, {}, {},
    {}, {}, {}, {}, {},
    {}, {}, {}, {}, {},
    {}, {}, {}, {}, {},
    {}, {}, {}, {}, {},
    {}, {}, {}, {}, {},
    {}, {}, {}, {}, {},
    {}, {}, {}, {}, {},
    {}, {}, {}, {}, {},
    {}, {}, {}, {}, {},
    {}, {}, {}, {}, {},
    {}, {}, {}, {}, {},
    {}, {}, {}, {}, {},
    {}, {}, {}, {}, {},
    {}, {}, {}, {}, {},
    {}, {}, {}, {}, {},
    {}, {}, {}, {}, {},
    {}, {}, {}, {}, {},
    {}, {}, {}, {}, {},
    {}, {}, {}, {}, {},
    {}, {}, {}, {}, {},
    {}, {}, {}, {}, {},
    {}, {}, {}, {}, {},
    {}, {}, {}, {}, {},
    {}, {}, {}, {}, {},
    {}, {}, {}, {}, {},
    {}, {}, {}, {}, {},
    {}, {}, {}, {}, {},
    {}, {}, {}, {}, {},
    {}, {}, {}, {}, {},
    {}, {}, {}, {}, {},
    {}, {}, {}, {}, {},
    {}, {}, {}, {}, {},
    {}, {}, {}, {}, {},
    {}, {}, {}, {}, {},
    {}, {}, {}, {}, {},
    {}, {}, {}, {}, {},
    {}, {}, {}, {}, {},
    {}, {}, {}, {}, {},
    {}, {}, {}, {}, {},
    {}, {}, {}, {}, {},
    {}, {}, {}, {}, {},
    {}, {}, {}, {}, {},
    {}, {}, {}, {}, {},
    {}, {}, {}, {}, {},
    {}, {}, {}, {}, {},
    {}, {}, {}, {}, {},
    {}, {}, {}, {}, {},
    {}, {}, {}, {}, {},
    {}, {}, {}, {}, {},
    {}, {}, {}, {}, {},
    {}, {}, {}, {}, {},
    {}, {}, {}, {}, {},
    {}, {}, {}, {}, {},
    {}, {}, {}, {}, {},
    {}, {}, {}, {}, {},
    {}, {}, {}, {}, {},
    {}, {}, {}, {}, {},
    {}, {}, {}, {}, {},
    {}, {}, {}, {}, {},
    {}, {}, {}, {}, {},
    {}, {}, {}, {}, {},
    {}, {}, {}, {}, {},
    {}, {}, {}, {}, {},
    {}, {}, {}, {}, {},
    {}, {}, {}, {}, {},
    {}, {}, {}, {}, {},
    {}, {}, {}, {}, {},
    {}, {}, {}, {}, {},
    {}, {}, {}, {}, {},
    {}, {}, {}, {}, {},
    {}, {}, {}, {}, {},
    {}, {}, {}, {}, {},
    {}, {}, {}, {}, {},
    {}, {}, {}, {}, {},
    {}, {}, {}, {}, {},
    {}, {}, {}, {}, {},
    {}, {}, {}, {}, {},
    {}, {}, {}, {}, {},
    {}, {}, {}, {}, {},
    {}, {}, {}, {}, {},
    {}, {}, {}, {}, {},
    {}, {}, {}, {}, {},
    {}, {}, {}, {}, {},
    {}, {}, {}, {}, {},
    {}, {}, {}, {}, {},
    {}, {}, {}, {}, {},
    {}, {}, {}, {}, {},
    {}, {}, {}, {}, {},
    {}, {}, {}, {}, {},
    {}, {}, {}, {}, {},
    {}, {}, {}, {}, {},
    {}, {}, {}, {}, {},
    {}, {}, {}, {}, {},
    {}, {}, {}, {}, {},
    {}, {}, {}, {}, {},
    {}, {}, {}, {}, {},
    {}, {}, {}, {}, {},
    {}, {}, {}, {}, {},
    {}, {}, {}, {}, {},
    {}, {}, {}, {}, {},
    {}, {}, {}, {}, {},
    {}, {}, {}, {}, {},
    {}, {}, {}, {}, {},
    {}, {}, {}, {}, {},
    {}, {}, {}, {}, {},
    {}, {}, {}, {}, {},
    {}, {}, {}, {}, {},
    {}, {}, {}, {}, {},
    {}, {}, {}, {}, {},
    {}, {}, {}, {}, {},
    {}, {}, {}, {}, {},
    {}, {}, {}, {}, {},
    {}, {}, {}, {}, {},
    {}, {}, {}, {}, {}
]);
